Route #1: 51 24 18 50 32 44 3
Route #2: 49 23 56 41 42 64 22 62
Route #3: 16 63 43 1 33 6
Route #4: 4 45 29 48 30
Route #5: 2 28 61 21 36 47
Route #6: 5 37 60 20 15 57 13 27
Route #7: 46 8 35 19 54 52 34
Route #8: 7 53 14 59 11
Route #9: 38 10 31 55 25 9
Route #10: 17 40 12 39 58 26
Cost 825